*Heading
** Job name: Job-1 Model name: Model-1
** Generated by: Abaqus/CAE 2024
*Preprint, echo=NO, model=NO, history=NO, contact=NO
**
** PARTS
**
*Part, name=Part-1
*Node
      1,   20.0017319,   4.51689863,          32.
      2,   40.0031967,   4.62617445,          32.
      3,   60.0041771,   4.80362225,          32.
      4,   80.0045242,   5.04241514,          32.
      5,   100.004181,   5.33337069,          32.
      6,   120.003197,   5.66530371,          32.
      7,   140.001724,   6.02545881,          32.
      8,         160.,    6.4000001,          32.
      9,   179.998276,   6.77454138,          32.
     10,   199.996796,   7.13469648,          32.
     11,   219.995819,   7.46662951,          32.
     12,   239.995483,   7.75758457,          32.
     13,   259.995819,   7.99637794,          32.
     14,   279.996796,   8.17382526,          32.
     15,    299.99826,   8.28310108,          32.
     16,         320.,   8.31999969,          32.
     17,    340.00174,   8.28310108,          32.
     18,   360.003204,   8.17382526,          32.
     19,   380.004181,   7.99637794,          32.
     20,   400.004517,   7.75758457,          32.
     21,   420.004181,   7.46662951,          32.
     22,   440.003204,   7.13469648,          32.
     23,    460.00174,   6.77454138,          32.
     24,         480.,    6.4000001,          32.
     25,    499.99826,   6.02545881,          32.
     26,   519.996826,   5.66530371,          32.
     27,    539.99585,   5.33337069,          32.
     28,   559.995483,   5.04241514,          32.
     29,    579.99585,   4.80362225,          32.
     30,   599.996826,   4.62617445,          32.
     31,   619.998291,   4.51689863,          32.
     32,           0.,   4.48000002,          32.
     33,         640.,   4.48000002,          32.
     34,           0.,  -1.91999996,          32.
     35,   619.998291,  -1.88310134,          32.
     36,   599.996826,  -1.77382565,          32.
     37,    579.99585,  -1.59637785,          32.
     38,   559.995483,  -1.35758471,          32.
     39,    539.99585,  -1.06662941,          32.
     40,   519.996826, -0.734696507,          32.
     41,    499.99826, -0.374541432,          32.
     42,         480.,           0.,          32.
     43,    460.00174,  0.374541432,          32.
     44,   440.003204,  0.734696507,          32.
     45,   420.004181,   1.06662941,          32.
     46,   400.004517,   1.35758471,          32.
     47,   380.004181,   1.59637785,          32.
     48,   360.003204,   1.77382565,          32.
     49,    340.00174,   1.88310134,          32.
     50,         320.,   1.91999996,          32.
     51,    299.99826,   1.88310134,          32.
     52,   279.996796,   1.77382565,          32.
     53,   259.995819,   1.59637785,          32.
     54,   239.995483,   1.35758471,          32.
     55,   219.995819,   1.06662941,          32.
     56,   199.996796,  0.734696507,          32.
     57,   179.998276,  0.374541432,          32.
     58,         160.,           0.,          32.
     59,   140.001724, -0.374541432,          32.
     60,   120.003197, -0.734696507,          32.
     61,   100.004181,  -1.06662941,          32.
     62,   80.0045242,  -1.35758471,          32.
     63,   60.0041771,  -1.59637785,          32.
     64,   40.0031967,  -1.77382565,          32.
     65,   20.0017319,  -1.88310134,          32.
     66,         640.,  -1.91999996,          32.
     67,   10.0008821,   4.48924589,          32.
     68,   30.0025139,   4.56268835,          32.
     69,   50.0037613,   4.70674467,          32.
     70,   70.0044327,   4.91587305,          32.
     71,   90.0044327,   5.18202972,          32.
     72,   110.003761,   5.49498081,          32.
     73,   130.002518,   5.84269857,          32.
     74,   150.000885,   6.21182346,          32.
     75,   169.999115,   6.58817625,          32.
     76,   189.997482,   6.95730114,          32.
     77,   209.996246,   7.30501938,          32.
     78,    229.99556,   7.61797047,          32.
     79,    249.99556,   7.88412714,          32.
     80,   269.996246,   8.09325504,          32.
     81,   289.997498,   8.23731136,          32.
     82,   309.999115,   8.31075287,          32.
     83,   330.000885,   8.31075287,          32.
     84,   350.002502,   8.23731136,          32.
     85,   370.003754,   8.09325504,          32.
     86,   390.004425,   7.88412714,          32.
     87,   410.004425,   7.61797047,          32.
     88,   430.003754,   7.30501938,          32.
     89,   450.002502,   6.95730114,          32.
     90,   470.000885,   6.58817625,          32.
     91,   489.999115,   6.21182346,          32.
     92,   509.997498,   5.84269857,          32.
     93,   529.996216,   5.49498081,          32.
     94,   549.995544,   5.18202972,          32.
     95,   569.995544,   4.91587305,          32.
     96,   589.996216,   4.70674467,          32.
     97,   609.997498,   4.56268835,          32.
     98,   629.999146,   4.48924589,          32.
     99,   629.999146,  -1.91075408,          32.
    100,   609.997498,  -1.83731174,          32.
    101,   589.996216,  -1.69325542,          32.
    102,   569.995544,  -1.48412704,          32.
    103,   549.995544,  -1.21797049,          32.
    104,   529.996216, -0.905019224,          32.
    105,   509.997498, -0.557301283,          32.
    106,   489.999115, -0.188176364,          32.
    107,   470.000885,  0.188176364,          32.
    108,   450.002502,  0.557301283,          32.
    109,   430.003754,  0.905019224,          32.
    110,   410.004425,   1.21797049,          32.
    111,   390.004425,   1.48412704,          32.
    112,   370.003754,   1.69325542,          32.
    113,   350.002502,   1.83731174,          32.
    114,   330.000885,   1.91075301,          32.
    115,   309.999115,   1.91075301,          32.
    116,   289.997498,   1.83731174,          32.
    117,   269.996246,   1.69325542,          32.
    118,    249.99556,   1.48412704,          32.
    119,    229.99556,   1.21797049,          32.
    120,   209.996246,  0.905019224,          32.
    121,   189.997482,  0.557301283,          32.
    122,   169.999115,  0.188176364,          32.
    123,   150.000885, -0.188176364,          32.
    124,   130.002518, -0.557301283,          32.
    125,   110.003761, -0.905019224,          32.
    126,   90.0044327,  -1.21797049,          32.
    127,   70.0044327,  -1.48412704,          32.
    128,   50.0037613,  -1.69325542,          32.
    129,   30.0025139,  -1.83731174,          32.
    130,   10.0008821,  -1.91075408,          32.
    131,   20.0017319,   4.51689863,           0.
    132,   40.0031967,   4.62617445,           0.
    133,   60.0041771,   4.80362225,           0.
    134,   80.0045242,   5.04241514,           0.
    135,   100.004181,   5.33337069,           0.
    136,   120.003197,   5.66530371,           0.
    137,   140.001724,   6.02545881,           0.
    138,         160.,    6.4000001,           0.
    139,   179.998276,   6.77454138,           0.
    140,   199.996796,   7.13469648,           0.
    141,   219.995819,   7.46662951,           0.
    142,   239.995483,   7.75758457,           0.
    143,   259.995819,   7.99637794,           0.
    144,   279.996796,   8.17382526,           0.
    145,    299.99826,   8.28310108,           0.
    146,         320.,   8.31999969,           0.
    147,    340.00174,   8.28310108,           0.
    148,   360.003204,   8.17382526,           0.
    149,   380.004181,   7.99637794,           0.
    150,   400.004517,   7.75758457,           0.
    151,   420.004181,   7.46662951,           0.
    152,   440.003204,   7.13469648,           0.
    153,    460.00174,   6.77454138,           0.
    154,         480.,    6.4000001,           0.
    155,    499.99826,   6.02545881,           0.
    156,   519.996826,   5.66530371,           0.
    157,    539.99585,   5.33337069,           0.
    158,   559.995483,   5.04241514,           0.
    159,    579.99585,   4.80362225,           0.
    160,   599.996826,   4.62617445,           0.
    161,   619.998291,   4.51689863,           0.
    162,           0.,   4.48000002,           0.
    163,         640.,   4.48000002,           0.
    164,           0.,  -1.91999996,           0.
    165,   619.998291,  -1.88310134,           0.
    166,   599.996826,  -1.77382565,           0.
    167,    579.99585,  -1.59637785,           0.
    168,   559.995483,  -1.35758471,           0.
    169,    539.99585,  -1.06662941,           0.
    170,   519.996826, -0.734696507,           0.
    171,    499.99826, -0.374541432,           0.
    172,         480.,           0.,           0.
    173,    460.00174,  0.374541432,           0.
    174,   440.003204,  0.734696507,           0.
    175,   420.004181,   1.06662941,           0.
    176,   400.004517,   1.35758471,           0.
    177,   380.004181,   1.59637785,           0.
    178,   360.003204,   1.77382565,           0.
    179,    340.00174,   1.88310134,           0.
    180,         320.,   1.91999996,           0.
    181,    299.99826,   1.88310134,           0.
    182,   279.996796,   1.77382565,           0.
    183,   259.995819,   1.59637785,           0.
    184,   239.995483,   1.35758471,           0.
    185,   219.995819,   1.06662941,           0.
    186,   199.996796,  0.734696507,           0.
    187,   179.998276,  0.374541432,           0.
    188,         160.,           0.,           0.
    189,   140.001724, -0.374541432,           0.
    190,   120.003197, -0.734696507,           0.
    191,   100.004181,  -1.06662941,           0.
    192,   80.0045242,  -1.35758471,           0.
    193,   60.0041771,  -1.59637785,           0.
    194,   40.0031967,  -1.77382565,           0.
    195,   20.0017319,  -1.88310134,           0.
    196,         640.,  -1.91999996,           0.
    197,   10.0008821,   4.48924589,           0.
    198,   30.0025139,   4.56268835,           0.
    199,   50.0037613,   4.70674467,           0.
    200,   70.0044327,   4.91587305,           0.
    201,   90.0044327,   5.18202972,           0.
    202,   110.003761,   5.49498081,           0.
    203,   130.002518,   5.84269857,           0.
    204,   150.000885,   6.21182346,           0.
    205,   169.999115,   6.58817625,           0.
    206,   189.997482,   6.95730114,           0.
    207,   209.996246,   7.30501938,           0.
    208,    229.99556,   7.61797047,           0.
    209,    249.99556,   7.88412714,           0.
    210,   269.996246,   8.09325504,           0.
    211,   289.997498,   8.23731136,           0.
    212,   309.999115,   8.31075287,           0.
    213,   330.000885,   8.31075287,           0.
    214,   350.002502,   8.23731136,           0.
    215,   370.003754,   8.09325504,           0.
    216,   390.004425,   7.88412714,           0.
    217,   410.004425,   7.61797047,           0.
    218,   430.003754,   7.30501938,           0.
    219,   450.002502,   6.95730114,           0.
    220,   470.000885,   6.58817625,           0.
    221,   489.999115,   6.21182346,           0.
    222,   509.997498,   5.84269857,           0.
    223,   529.996216,   5.49498081,           0.
    224,   549.995544,   5.18202972,           0.
    225,   569.995544,   4.91587305,           0.
    226,   589.996216,   4.70674467,           0.
    227,   609.997498,   4.56268835,           0.
    228,   629.999146,   4.48924589,           0.
    229,   629.999146,  -1.91075408,           0.
    230,   609.997498,  -1.83731174,           0.
    231,   589.996216,  -1.69325542,           0.
    232,   569.995544,  -1.48412704,           0.
    233,   549.995544,  -1.21797049,           0.
    234,   529.996216, -0.905019224,           0.
    235,   509.997498, -0.557301283,           0.
    236,   489.999115, -0.188176364,           0.
    237,   470.000885,  0.188176364,           0.
    238,   450.002502,  0.557301283,           0.
    239,   430.003754,  0.905019224,           0.
    240,   410.004425,   1.21797049,           0.
    241,   390.004425,   1.48412704,           0.
    242,   370.003754,   1.69325542,           0.
    243,   350.002502,   1.83731174,           0.
    244,   330.000885,   1.91075301,           0.
    245,   309.999115,   1.91075301,           0.
    246,   289.997498,   1.83731174,           0.
    247,   269.996246,   1.69325542,           0.
    248,    249.99556,   1.48412704,           0.
    249,    229.99556,   1.21797049,           0.
    250,   209.996246,  0.905019224,           0.
    251,   189.997482,  0.557301283,           0.
    252,   169.999115,  0.188176364,           0.
    253,   150.000885, -0.188176364,           0.
    254,   130.002518, -0.557301283,           0.
    255,   110.003761, -0.905019224,           0.
    256,   90.0044327,  -1.21797049,           0.
    257,   70.0044327,  -1.48412704,           0.
    258,   50.0037613,  -1.69325542,           0.
    259,   30.0025139,  -1.83731174,           0.
    260,   10.0008821,  -1.91075408,           0.
    261,   634.999573,    4.4822917,           0.
    262,         640.,   1.27999997,           0.
    263,   634.999573,   1.28462291,           0.
    264,   634.999573,   1.28462291,          32.
    265,         640.,   1.27999997,          32.
    266,   634.999573,    4.4822917,          32.
    267,         640.,  -1.91999996,          16.
    268,   629.999146,   4.48924589,          16.
    269,         640.,   4.48000002,          16.
    270,   624.998718,   1.30307221,           0.
    271,   629.999146,   1.28924584,           0.
    272,   624.998718,  -1.89921498,           0.
    273,   624.998718,  -1.89921498,          32.
    274,   629.999146,   1.28924584,          32.
    275,   624.998718,   1.30307221,          32.
    276,   629.999146,  -1.91075408,          16.
    277,   619.998291,  -1.88310146,          16.
    278,   604.997192,   1.39443135,           0.
    279,   609.997498,    1.3626883,           0.
    280,   604.997131,  -1.80774653,           0.
    281,   604.997131,  -1.80774653,          32.
    282,   609.997498,    1.3626883,          32.
    283,   604.997192,   1.39443135,          32.
    284,   609.997498,  -1.83731174,          16.
    285,   599.996826,  -1.77382576,          16.
    286,   609.997498,   4.56268835,          16.
    287,   584.996033,   1.55518341,           0.
    288,   589.996216,   1.50674462,           0.
    289,   584.996033,  -1.64680028,           0.
    290,   584.996033,  -1.64680028,          32.
    291,   589.996216,   1.50674462,          32.
    292,   584.996033,   1.55518341,          32.
    293,   589.996216,  -1.69325519,          16.
    294,    579.99585,  -1.59637821,          16.
    295,   589.996216,   4.70674467,          16.
    296,   564.995483,   1.77914417,           0.
    297,   569.995544,     1.715873,           0.
    298,   564.995483,  -1.42256904,           0.
    299,   564.995483,  -1.42256904,          32.
    300,   569.995544,     1.715873,          32.
    301,   564.995483,   1.77914417,          32.
    302,   569.995544,  -1.48412681,          16.
    303,   559.995483,  -1.35758483,          16.
    304,   569.995544,   4.91587305,          16.
    305,   544.995728,   2.05770016,           0.
    306,   549.995544,   1.98202968,           0.
    307,   544.995667,  -1.14367723,           0.
    308,   544.995667,  -1.14367723,          32.
    309,   549.995544,   1.98202968,          32.
    310,   544.995728,   2.05770016,          32.
    311,   549.995544,  -1.21797013,          16.
    312,    539.99585,  -1.06662977,          16.
    313,   549.995544,   5.18202972,          16.
    314,   524.996521,   2.38014221,           0.
    315,   529.996216,   2.29498076,           0.
    316,   524.996521,   -0.8208462,           0.
    317,   524.996521,   -0.8208462,          32.
    318,   529.996216,   2.29498076,          32.
    319,   524.996521,   2.38014221,          32.
    320,   529.996216, -0.905018806,          16.
    321,   519.996826, -0.734696925,          16.
    322,   529.996216,   5.49498129,          16.
    323,   504.997864,   2.73407865,           0.
    324,   509.997498,   2.64269876,           0.
    325,   504.997864, -0.466482967,           0.
    326,   504.997864, -0.466482967,          32.
    327,   509.997498,   2.64269876,          32.
    328,   504.997864,   2.73407865,          32.
    329,   509.997498, -0.557301462,          16.
    330,    499.99826, -0.374541253,          16.
    331,   509.997498,   5.84269857,          16.
    332,   484.999573,   3.10591173,           0.
    333,   489.999115,   3.01182365,           0.
    334,   484.999542, -0.0942015648,           0.
    335,   484.999542, -0.0942015648,          32.
    336,   489.999115,   3.01182365,          32.
    337,   484.999573,   3.10591173,          32.
    338,   489.999115, -0.188176304,          16.
    339,         480.,           0.,          16.
    340,   489.999115,   6.21182346,          16.
    341,   465.001312,   3.48135877,           0.
    342,   470.000885,    3.3881762,           0.
    343,   465.001312,  0.281697929,           0.
    344,   465.001312,  0.281697929,          32.
    345,   470.000885,    3.3881762,          32.
    346,   465.001312,   3.48135877,          32.
    347,   470.000885,  0.188176304,          16.
    348,    460.00174,  0.374541253,          16.
    349,   470.000885,   6.58817625,          16.
    350,   445.002869,   3.84599876,           0.
    351,   450.002502,   3.75730133,           0.
    352,   445.002869,   0.64677763,           0.
    353,   445.002869,   0.64677763,          32.
    354,   450.002502,   3.75730133,          32.
    355,   445.002869,   3.84599876,          32.
    356,   450.002502,  0.557301462,          16.
    357,   440.003204,  0.734696388,          16.
    358,   450.002502,   6.95730162,          16.
    359,   425.003967,   4.18582439,           0.
    360,   430.003754,   4.10501909,           0.
    361,   425.003998,  0.987012804,           0.
    362,   425.003998,  0.987012804,          32.
    363,   430.003754,   4.10501909,          32.
    364,   425.003967,   4.18582439,          32.
    365,   430.003754,  0.905019343,          16.
    366,   420.004181,   1.06662929,          16.
    367,   430.003754,   7.30501938,          16.
    368,   405.004456,   4.48777771,           0.
    369,   410.004425,   4.41797066,           0.
    370,   405.004486,   1.28933048,           0.
    371,   405.004486,   1.28933048,          32.
    372,   410.004425,   4.41797066,          32.
    373,   405.004456,   4.48777771,          32.
    374,   410.004425,   1.21797061,          16.
    375,   400.004517,   1.35758483,          16.
    376,   410.004425,   7.61797047,          16.
    377,   385.004303,   4.74025249,           0.
    378,   390.004425,   4.68412685,           0.
    379,   385.004333,   1.54210985,           0.
    380,   385.004333,   1.54210985,          32.
    381,   390.004425,   4.68412685,          32.
    382,   385.004303,   4.74025249,          32.
    383,   390.004425,   1.48412716,          16.
    384,   380.004181,   1.59637785,          16.
    385,   390.004425,   7.88412714,          16.
    386,   365.003479,   4.93354034,           0.
    387,   370.003754,   4.89325523,           0.
    388,    365.00351,   1.73563123,           0.
    389,    365.00351,   1.73563123,          32.
    390,   370.003754,   4.89325523,          32.
    391,   365.003479,   4.93354034,          32.
    392,   370.003754,   1.69325542,          16.
    393,   360.003204,   1.77382553,          16.
    394,   370.003754,   8.09325504,          16.
    395,   345.002136,   5.06020641,           0.
    396,   350.002502,   5.03731155,           0.
    397,   345.002136,   1.86245024,           0.
    398,   345.002136,   1.86245024,          32.
    399,   350.002502,   5.03731155,          32.
    400,   345.002136,   5.06020641,          32.
    401,   350.002502,   1.83731174,          16.
    402,    340.00174,   1.88310134,          16.
    403,   350.002502,   8.23731136,          16.
    404,   325.000427,   5.11537647,           0.
    405,   330.000885,   5.11075306,           0.
    406,   325.000458,   1.91768682,           0.
    407,   325.000458,   1.91768682,          32.
    408,   330.000885,   5.11075306,          32.
    409,   325.000427,   5.11537647,          32.
    410,   330.000885,   1.91075301,          16.
    411,         320.,   1.91999996,          16.
    412,   330.000885,   8.31075287,          16.
    413,   314.999542,   8.31768703,           0.
    414,         320.,   5.11999989,           0.
    415,   314.999573,   5.11537647,           0.
    416,   314.999573,   5.11537647,          32.
    417,         320.,   5.11999989,          32.
    418,   314.999542,   8.31768703,          32.
    419,   309.999115,   8.31075287,          16.
    420,         320.,   8.31999969,          16.
    421,   309.999115,   5.11075306,           0.
    422,   304.998688,   1.89921522,           0.
    423,   304.998688,   5.09692717,           0.
    424,   304.998688,   5.09692717,          32.
    425,   304.998688,   1.89921522,          32.
    426,   309.999115,   5.11075306,          32.
    427,    299.99826,   1.88310134,          16.
    428,   309.999115,   1.91075301,          16.
    429,    299.99826,   5.08310127,           0.
    430,   294.997864,   5.06020641,           0.
    431,   294.997864,   8.26245022,           0.
    432,   294.997864,   8.26245022,          32.
    433,   294.997864,   5.06020641,          32.
    434,    299.99826,   5.08310127,          32.
    435,   289.997498,   8.23731136,          16.
    436,    299.99826,   8.28310108,          16.
    437,   289.997498,   5.03731155,           0.
    438,   284.997131,   1.80774641,           0.
    439,   284.997131,    5.0055685,           0.
    440,   284.997131,    5.0055685,          32.
    441,   284.997131,   1.80774641,          32.
    442,   289.997498,   5.03731155,          32.
    443,   279.996796,   1.77382553,          16.
    444,   289.997498,   1.83731174,          16.
    445,   274.996521,   4.93354034,           0.
    446,    274.99649,   8.13563156,           0.
    447,   279.996796,   4.97382545,           0.
    448,   279.996796,   4.97382545,          32.
    449,    274.99649,   8.13563156,          32.
    450,   274.996521,   4.93354034,          32.
    451,   279.996796,   8.17382526,          16.
    452,   269.996246,   8.09325504,          16.
    453,   254.995697,   4.74025249,           0.
    454,   254.995667,   7.94210958,           0.
    455,   259.995819,   4.79637814,           0.
    456,   259.995819,   4.79637814,          32.
    457,   254.995667,   7.94210958,          32.
    458,   254.995697,   4.74025249,          32.
    459,   259.995819,   7.99637794,          16.
    460,   259.995819,   1.59637785,          16.
    461,    249.99556,   7.88412714,          16.
    462,   234.995514,   4.48777771,           0.
    463,   234.995499,    7.6893301,           0.
    464,   239.995483,   4.55758476,           0.
    465,   239.995483,   4.55758476,          32.
    466,   234.995499,    7.6893301,          32.
    467,   234.995514,   4.48777771,          32.
    468,   239.995483,   7.75758505,          16.
    469,   239.995483,   1.35758483,          16.
    470,    229.99556,   7.61797047,          16.
    471,   214.996033,   4.18582439,           0.
    472,   214.996017,   7.38701296,           0.
    473,   219.995819,   4.26662922,           0.
    474,   219.995819,   4.26662922,          32.
    475,   214.996017,   7.38701296,          32.
    476,   214.996033,   4.18582439,          32.
    477,   219.995819,   7.46662951,          16.
    478,   219.995819,   1.06662929,          16.
    479,   209.996246,   7.30501938,          16.
    480,   194.997131,   3.84599876,           0.
    481,   194.997131,   7.04677773,           0.
    482,   199.996796,   3.93469644,           0.
    483,   199.996796,   3.93469644,          32.
    484,   194.997131,   7.04677773,          32.
    485,   194.997131,   3.84599876,          32.
    486,   199.996796,   7.13469648,          16.
    487,   199.996796,  0.734696388,          16.
    488,   189.997482,   6.95730114,          16.
    489,   174.998688,   3.48135877,           0.
    490,   174.998688,   6.68169785,           0.
    491,   179.998276,   3.57454133,           0.
    492,   179.998276,   3.57454133,          32.
    493,   174.998688,   6.68169785,          32.
    494,   174.998688,   3.48135877,          32.
    495,   179.998276,   6.77454138,          16.
    496,   179.998276,  0.374541551,          16.
    497,   169.999115,   6.58817625,          16.
    498,   155.000443,   3.10591173,           0.
    499,   155.000443,   6.30579853,           0.
    500,         160.,   3.20000005,           0.
    501,         160.,   3.20000005,          32.
    502,   155.000443,   6.30579853,          32.
    503,   155.000443,   3.10591173,          32.
    504,         160.,    6.4000001,          16.
    505,         160.,           0.,          16.
    506,   150.000885,   6.21182346,          16.
    507,   135.002121,   2.73407865,           0.
    508,   135.002136,   5.93351698,           0.
    509,   140.001724,   2.82545877,           0.
    510,   140.001724,   2.82545877,          32.
    511,   135.002136,   5.93351698,          32.
    512,   135.002121,   2.73407865,          32.
    513,   140.001724,   6.02545834,          16.
    514,   140.001724, -0.374541551,          16.
    515,   130.002518,   5.84269905,          16.
    516,   115.003479,   2.38014221,           0.
    517,   115.003494,   5.57915401,           0.
    518,   120.003197,   2.46530366,           0.
    519,   120.003197,   2.46530366,          32.
    520,   115.003494,   5.57915401,          32.
    521,   115.003479,   2.38014221,          32.
    522,   120.003197,   5.66530371,          16.
    523,   120.003197, -0.734696507,          16.
    524,   110.003761,   5.49498081,          16.
    525,    95.004303,   2.05770016,           0.
    526,   95.0043259,   5.25632286,           0.
    527,   100.004181,   2.13337064,           0.
    528,   100.004181,   2.13337064,          32.
    529,   95.0043259,   5.25632286,          32.
    530,    95.004303,   2.05770016,          32.
    531,   100.004181,   5.33337069,          16.
    532,   100.004181,  -1.06662929,          16.
    533,   90.0044327,   5.18202925,          16.
    534,   75.0044785,   1.77914417,           0.
    535,   75.0045013,   4.97743082,           0.
    536,   80.0045242,   1.84241521,           0.
    537,   80.0045242,   1.84241521,          32.
    538,   75.0045013,   4.97743082,          32.
    539,   75.0044785,   1.77914417,          32.
    540,   80.0045242,   5.04241514,          16.
    541,   80.0045242,  -1.35758471,          16.
    542,   70.0044327,   4.91587305,          16.
    543,   55.0039673,   1.55518341,           0.
    544,   55.0039902,   4.75319958,           0.
    545,   60.0041771,    1.6036222,           0.
    546,   60.0041771,    1.6036222,          32.
    547,   55.0039902,   4.75319958,          32.
    548,   55.0039673,   1.55518341,          32.
    549,   60.0041771,   4.80362225,          16.
    550,   60.0041771,  -1.59637785,          16.
    551,   50.0037613,   4.70674467,          16.
    552,   35.0028534,   1.39443135,           0.
    553,   35.0028687,   4.59225368,           0.
    554,   40.0031967,    1.4261744,           0.
    555,   40.0031967,    1.4261744,          32.
    556,   35.0028687,   4.59225368,          32.
    557,   35.0028534,   1.39443135,          32.
    558,   40.0031967,   4.62617445,          16.
    559,   40.0031967,  -1.77382565,          16.
    560,   30.0025139,   4.56268835,          16.
    561,   15.0013065,   1.30307221,           0.
    562,   15.0013132,   4.50078487,           0.
    563,   20.0017319,   1.31689858,           0.
    564,   20.0017319,   1.31689858,          32.
    565,   15.0013132,   4.50078487,          32.
    566,   15.0013065,   1.30307221,          32.
    567,   20.0017319,   4.51689863,          16.
    568,   20.0017319,  -1.88310134,          16.
    569,   10.0008821,   4.48924589,          16.
    570,   10.0008821,   1.28924584,           0.
    571,   5.00044298,  -1.91770804,           0.
    572,   5.00044107,   1.28462291,           0.
    573,   5.00044107,   1.28462291,          32.
    574,   5.00044298,  -1.91770804,          32.
    575,   10.0008821,   1.28924584,          32.
    576,           0.,  -1.91999996,          16.
    577,   10.0008821,  -1.91075408,          16.
    578,   30.0025139,    1.3626883,           0.
    579,   25.0021324,  -1.86245024,           0.
    580,   25.0021229,   1.33979344,           0.
    581,   25.0021229,   1.33979344,          32.
    582,   25.0021324,  -1.86245024,          32.
    583,   30.0025139,    1.3626883,          32.
    584,   30.0025139,  -1.83731174,          16.
    585,   50.0037613,   1.50674462,           0.
    586,   45.0034943,  -1.73563123,           0.
    587,    45.003479,   1.46645951,           0.
    588,    45.003479,   1.46645951,          32.
    589,   45.0034943,  -1.73563123,          32.
    590,   50.0037613,   1.50674462,          32.
    591,   50.0037613,  -1.69325542,          16.
    592,   70.0044327,     1.715873,           0.
    593,   65.0043259,  -1.54210985,           0.
    594,    65.004303,    1.6597476,           0.
    595,    65.004303,    1.6597476,          32.
    596,   65.0043259,  -1.54210985,          32.
    597,   70.0044327,     1.715873,          32.
    598,   70.0044327,  -1.48412704,          16.
    599,   90.0044327,   1.98202968,           0.
    600,   85.0045013,  -1.28933036,           0.
    601,   85.0044785,    1.9122225,           0.
    602,   85.0044785,    1.9122225,          32.
    603,   85.0045013,  -1.28933036,          32.
    604,   90.0044327,   1.98202968,          32.
    605,   90.0044327,  -1.21797049,          16.
    606,   110.003761,   2.29498076,           0.
    607,    105.00399, -0.987012744,           0.
    608,   105.003967,    2.2141757,           0.
    609,   105.003967,    2.2141757,          32.
    610,    105.00399, -0.987012744,          32.
    611,   110.003761,   2.29498076,          32.
    612,   110.003761, -0.905019224,          16.
    613,   130.002518,   2.64269876,           0.
    614,   125.002869,  -0.64677757,           0.
    615,   125.002853,   2.55400109,           0.
    616,   125.002853,   2.55400109,          32.
    617,   125.002869,  -0.64677757,          32.
    618,   130.002518,   2.64269876,          32.
    619,   130.002518, -0.557301164,          16.
    620,   150.000885,   3.01182365,           0.
    621,   145.001312, -0.281698078,           0.
    622,   145.001312,   2.91864109,           0.
    623,   145.001312,   2.91864109,          32.
    624,   145.001312, -0.281698078,          32.
    625,   150.000885,   3.01182365,          32.
    626,   150.000885, -0.188176304,          16.
    627,   169.999115,    3.3881762,           0.
    628,   164.999557, 0.0942015648,           0.
    629,   164.999557,   3.29408813,           0.
    630,   164.999557,   3.29408813,          32.
    631,   164.999557, 0.0942015648,          32.
    632,   169.999115,    3.3881762,          32.
    633,   169.999115,  0.188176304,          16.
    634,   189.997482,   3.75730133,           0.
    635,   184.997864,  0.466482967,           0.
    636,   184.997879,   3.66592121,           0.
    637,   184.997879,   3.66592121,          32.
    638,   184.997864,  0.466482967,          32.
    639,   189.997482,   3.75730133,          32.
    640,   189.997482,  0.557301164,          16.
    641,   209.996246,   4.10501909,           0.
    642,   204.996506,    0.8208462,           0.
    643,   204.996521,   4.01985788,           0.
    644,   204.996521,   4.01985788,          32.
    645,   204.996506,    0.8208462,          32.
    646,   209.996246,   4.10501909,          32.
    647,   209.996246,  0.905019343,          16.
    648,    229.99556,   4.41797066,           0.
    649,   224.995667,   1.14367712,           0.
    650,   224.995697,   4.34229994,           0.
    651,   224.995697,   4.34229994,          32.
    652,   224.995667,   1.14367712,          32.
    653,    229.99556,   4.41797066,          32.
    654,    229.99556,   1.21797037,          16.
    655,    249.99556,   4.68412685,           0.
    656,   244.995499,   1.42256916,           0.
    657,   244.995514,   4.62085581,           0.
    658,   244.995514,   4.62085581,          32.
    659,   244.995499,   1.42256916,          32.
    660,    249.99556,   4.68412685,          32.
    661,    249.99556,   1.48412693,          16.
    662,   269.996246,   4.89325523,           0.
    663,   264.996002,   1.64680028,           0.
    664,   264.996033,   4.84481621,           0.
    665,   264.996033,   4.84481621,          32.
    666,   264.996002,   1.64680028,          32.
    667,   269.996246,   4.89325523,          32.
    668,   269.996246,   1.69325542,          16.
    669,   335.001312,   8.29921532,           0.
    670,    340.00174,   5.08310127,           0.
    671,   335.001312,   5.09692717,           0.
    672,   335.001312,   5.09692717,          32.
    673,    340.00174,   5.08310127,          32.
    674,   335.001312,   8.29921532,          32.
    675,    340.00174,   8.28310108,          16.
    676,   355.002869,   8.20774651,           0.
    677,   360.003204,   4.97382545,           0.
    678,   355.002869,    5.0055685,           0.
    679,   355.002869,    5.0055685,          32.
    680,   360.003204,   4.97382545,          32.
    681,   355.002869,   8.20774651,          32.
    682,   360.003204,   8.17382526,          16.
    683,   375.003998,   8.04680061,           0.
    684,   380.004181,   4.79637814,           0.
    685,   375.003967,   4.84481621,           0.
    686,   375.003967,   4.84481621,          32.
    687,   380.004181,   4.79637814,          32.
    688,   375.003998,   8.04680061,          32.
    689,   380.004181,   7.99637794,          16.
    690,   395.004486,   7.82256937,           0.
    691,   400.004517,   4.55758476,           0.
    692,   395.004456,   4.62085581,           0.
    693,   395.004456,   4.62085581,          32.
    694,   400.004517,   4.55758476,          32.
    695,   395.004486,   7.82256937,          32.
    696,   400.004517,   7.75758505,          16.
    697,   415.004333,   7.54367733,           0.
    698,   420.004181,   4.26662922,           0.
    699,   415.004303,   4.34229994,           0.
    700,   415.004303,   4.34229994,          32.
    701,   420.004181,   4.26662922,          32.
    702,   415.004333,   7.54367733,          32.
    703,   420.004181,   7.46662951,          16.
    704,    435.00351,   7.22084618,           0.
    705,   440.003204,   3.93469644,           0.
    706,   435.003479,   4.01985788,           0.
    707,   435.003479,   4.01985788,          32.
    708,   440.003204,   3.93469644,          32.
    709,    435.00351,   7.22084618,          32.
    710,   440.003204,   7.13469648,          16.
    711,   455.002136,   6.86648321,           0.
    712,    460.00174,   3.57454133,           0.
    713,   455.002136,   3.66592121,           0.
    714,   455.002136,   3.66592121,          32.
    715,    460.00174,   3.57454133,          32.
    716,   455.002136,   6.86648321,          32.
    717,    460.00174,   6.77454138,          16.
    718,   475.000458,   6.49420166,           0.
    719,         480.,   3.20000005,           0.
    720,   475.000427,   3.29408813,           0.
    721,   475.000427,   3.29408813,          32.
    722,         480.,   3.20000005,          32.
    723,   475.000458,   6.49420166,          32.
    724,         480.,    6.4000001,          16.
    725,   494.998688,   6.11830187,           0.
    726,    499.99826,   2.82545877,           0.
    727,   494.998688,   2.91864109,           0.
    728,   494.998688,   2.91864109,          32.
    729,    499.99826,   2.82545877,          32.
    730,   494.998688,   6.11830187,          32.
    731,    499.99826,   6.02545881,          16.
    732,   514.997131,   5.75322199,           0.
    733,   519.996826,   2.46530366,           0.
    734,   514.997192,   2.55400109,           0.
    735,   514.997192,   2.55400109,          32.
    736,   519.996826,   2.46530366,          32.
    737,   514.997131,   5.75322199,          32.
    738,   519.996826,   5.66530323,          16.
    739,   534.996033,   5.41298723,           0.
    740,    539.99585,   2.13337064,           0.
    741,   534.996033,    2.2141757,           0.
    742,   534.996033,    2.2141757,          32.
    743,    539.99585,   2.13337064,          32.
    744,   534.996033,   5.41298723,          32.
    745,    539.99585,   5.33337021,          16.
    746,   554.995483,   5.11066961,           0.
    747,   559.995483,   1.84241521,           0.
    748,   554.995483,    1.9122225,           0.
    749,   554.995483,    1.9122225,          32.
    750,   559.995483,   1.84241521,          32.
    751,   554.995483,   5.11066961,          32.
    752,   559.995483,   5.04241514,          16.
    753,   574.995667,   4.85789013,           0.
    754,    579.99585,    1.6036222,           0.
    755,   574.995728,    1.6597476,           0.
    756,   574.995728,    1.6597476,          32.
    757,    579.99585,    1.6036222,          32.
    758,   574.995667,   4.85789013,          32.
    759,    579.99585,   4.80362177,          16.
    760,   594.996521,   4.66436863,           0.
    761,   599.996826,    1.4261744,           0.
    762,   594.996521,   1.46645951,           0.
    763,   594.996521,   1.46645951,          32.
    764,   599.996826,    1.4261744,          32.
    765,   594.996521,   4.66436863,          32.
    766,   599.996826,   4.62617397,          16.
    767,   614.997864,    4.5375495,           0.
    768,   619.998291,   1.31689858,           0.
    769,   614.997925,   1.33979344,           0.
    770,   614.997925,   1.33979344,          32.
    771,   619.998291,   1.31689858,          32.
    772,   614.997864,    4.5375495,          32.
    773,   619.998291,   4.51689863,          16.
    774,           0.,   1.27999997,           0.
    775,   5.00044298,    4.4822917,           0.
    776,   5.00044298,    4.4822917,          32.
    777,           0.,   1.27999997,          32.
    778,           0.,   4.48000002,          16.
    779,   25.0021324,   4.53754997,           0.
    780,   25.0021324,   4.53754997,          32.
    781,   45.0034943,   4.66436863,           0.
    782,   45.0034943,   4.66436863,          32.
    783,   65.0043259,   4.85789013,           0.
    784,   65.0043259,   4.85789013,          32.
    785,   85.0045013,   5.11066961,           0.
    786,   85.0045013,   5.11066961,          32.
    787,    105.00399,   5.41298723,           0.
    788,    105.00399,   5.41298723,          32.
    789,   125.002869,   5.75322247,           0.
    790,   125.002869,   5.75322247,          32.
    791,   145.001312,   6.11830187,           0.
    792,   145.001312,   6.11830187,          32.
    793,   164.999557,   6.49420166,           0.
    794,   164.999557,   6.49420166,          32.
    795,   184.997864,   6.86648321,           0.
    796,   184.997864,   6.86648321,          32.
    797,   204.996506,   7.22084618,           0.
    798,   204.996506,   7.22084618,          32.
    799,   224.995667,   7.54367685,           0.
    800,   224.995667,   7.54367685,          32.
    801,   244.995499,   7.82256937,           0.
    802,   244.995499,   7.82256937,          32.
    803,   264.996002,   8.04680061,           0.
    804,   264.996002,   8.04680061,          32.
    805,   284.997131,   8.20774651,           0.
    806,   284.997131,   8.20774651,          32.
    807,   304.998688,   8.29921532,           0.
    808,   304.998688,   8.29921532,          32.
    809,   325.000458,   8.31768703,           0.
    810,   325.000458,   8.31768703,          32.
    811,   345.002136,   8.26245022,           0.
    812,   345.002136,   8.26245022,          32.
    813,    365.00351,   8.13563156,           0.
    814,    365.00351,   8.13563156,          32.
    815,   385.004333,   7.94211006,           0.
    816,   385.004333,   7.94211006,          32.
    817,   405.004486,   7.68933058,           0.
    818,   405.004486,   7.68933058,          32.
    819,   425.003998,   7.38701296,           0.
    820,   425.003998,   7.38701296,          32.
    821,   445.002869,   7.04677773,           0.
    822,   445.002869,   7.04677773,          32.
    823,   465.001312,   6.68169785,           0.
    824,   465.001312,   6.68169785,          32.
    825,   484.999542,   6.30579853,           0.
    826,   484.999542,   6.30579853,          32.
    827,   504.997864,   5.93351698,           0.
    828,   504.997864,   5.93351698,          32.
    829,   524.996521,   5.57915401,           0.
    830,   524.996521,   5.57915401,          32.
    831,   544.995667,   5.25632286,           0.
    832,   544.995667,   5.25632286,          32.
    833,   564.995483,   4.97743082,           0.
    834,   564.995483,   4.97743082,          32.
    835,   584.996033,   4.75319958,           0.
    836,   584.996033,   4.75319958,          32.
    837,   604.997131,   4.59225368,           0.
    838,   604.997131,   4.59225368,          32.
    839,   624.998718,   4.50078487,           0.
    840,   624.998718,   4.50078487,          32.
    841,   634.999573,  -1.91770804,           0.
    842,   634.999573,  -1.91770804,          32.
    843,   614.997864,  -1.86245036,           0.
    844,   614.997864,  -1.86245036,          32.
    845,   594.996521,  -1.73563123,           0.
    846,   594.996521,  -1.73563123,          32.
    847,   574.995667,  -1.54210985,           0.
    848,   574.995667,  -1.54210985,          32.
    849,   554.995483,  -1.28933024,           0.
    850,   554.995483,  -1.28933024,          32.
    851,   534.996033, -0.987012804,           0.
    852,   534.996033, -0.987012804,          32.
    853,   514.997131, -0.646777928,           0.
    854,   514.997131, -0.646777928,          32.
    855,   494.998688, -0.281697929,           0.
    856,   494.998688, -0.281697929,          32.
    857,   475.000458, 0.0942015648,           0.
    858,   475.000458, 0.0942015648,          32.
    859,   455.002136,  0.466482967,           0.
    860,   455.002136,  0.466482967,          32.
    861,    435.00351,    0.8208462,           0.
    862,    435.00351,    0.8208462,          32.
    863,   415.004333,   1.14367723,           0.
    864,   415.004333,   1.14367723,          32.
    865,   395.004486,   1.42256927,           0.
    866,   395.004486,   1.42256927,          32.
    867,   375.003998,   1.64680028,           0.
    868,   375.003998,   1.64680028,          32.
    869,   355.002869,   1.80774641,           0.
    870,   355.002869,   1.80774641,          32.
    871,   335.001312,   1.89921522,           0.
    872,   335.001312,   1.89921522,          32.
    873,   314.999542,   1.91768682,           0.
    874,   314.999542,   1.91768682,          32.
    875,   294.997864,   1.86245024,           0.
    876,   294.997864,   1.86245024,          32.
    877,    274.99649,   1.73563123,           0.
    878,    274.99649,   1.73563123,          32.
    879,   254.995667,   1.54210985,           0.
    880,   254.995667,   1.54210985,          32.
    881,   234.995499,   1.28933036,           0.
    882,   234.995499,   1.28933036,          32.
    883,   214.996017,  0.987012804,           0.
    884,   214.996017,  0.987012804,          32.
    885,   194.997131,  0.646777511,           0.
    886,   194.997131,  0.646777511,          32.
    887,   174.998688,  0.281698078,           0.
    888,   174.998688,  0.281698078,          32.
    889,   155.000443, -0.0942015648,           0.
    890,   155.000443, -0.0942015648,          32.
    891,   135.002136, -0.466482967,           0.
    892,   135.002136, -0.466482967,          32.
    893,   115.003494,   -0.8208462,           0.
    894,   115.003494,   -0.8208462,          32.
    895,   95.0043259,  -1.14367712,           0.
    896,   95.0043259,  -1.14367712,          32.
    897,   75.0045013,  -1.42256916,           0.
    898,   75.0045013,  -1.42256916,          32.
    899,   55.0039902,  -1.64680028,           0.
    900,   55.0039902,  -1.64680028,          32.
    901,   35.0028687,  -1.80774641,           0.
    902,   35.0028687,  -1.80774641,          32.
    903,   15.0013132,  -1.89921498,           0.
    904,   15.0013132,  -1.89921498,          32.
*Element, type=C3D15
  1, 228, 196, 163,  98,  66,  33, 263, 262, 261, 264, 265, 266, 268, 267, 269
  2, 165, 229, 228,  35,  99,  98, 272, 271, 270, 273, 274, 275, 277, 276, 268
  3, 166, 230, 227,  36, 100,  97, 280, 279, 278, 281, 282, 283, 285, 284, 286
  4, 167, 231, 226,  37, 101,  96, 289, 288, 287, 290, 291, 292, 294, 293, 295
  5, 168, 232, 225,  38, 102,  95, 298, 297, 296, 299, 300, 301, 303, 302, 304
  6, 169, 233, 224,  39, 103,  94, 307, 306, 305, 308, 309, 310, 312, 311, 313
  7, 170, 234, 223,  40, 104,  93, 316, 315, 314, 317, 318, 319, 321, 320, 322
  8, 171, 235, 222,  41, 105,  92, 325, 324, 323, 326, 327, 328, 330, 329, 331
  9, 172, 236, 221,  42, 106,  91, 334, 333, 332, 335, 336, 337, 339, 338, 340
 10, 173, 237, 220,  43, 107,  90, 343, 342, 341, 344, 345, 346, 348, 347, 349
 11, 174, 238, 219,  44, 108,  89, 352, 351, 350, 353, 354, 355, 357, 356, 358
 12, 175, 239, 218,  45, 109,  88, 361, 360, 359, 362, 363, 364, 366, 365, 367
 13, 176, 240, 217,  46, 110,  87, 370, 369, 368, 371, 372, 373, 375, 374, 376
 14, 177, 241, 216,  47, 111,  86, 379, 378, 377, 380, 381, 382, 384, 383, 385
 15, 178, 242, 215,  48, 112,  85, 388, 387, 386, 389, 390, 391, 393, 392, 394
 16, 179, 243, 214,  49, 113,  84, 397, 396, 395, 398, 399, 400, 402, 401, 403
 17, 180, 244, 213,  50, 114,  83, 406, 405, 404, 407, 408, 409, 411, 410, 412
 18, 212, 180, 146,  82,  50,  16, 415, 414, 413, 416, 417, 418, 419, 411, 420
 19, 212, 181, 245,  82,  51, 115, 423, 422, 421, 424, 425, 426, 419, 427, 428
 20, 145, 211, 181,  15,  81,  51, 431, 430, 429, 432, 433, 434, 436, 435, 427
 21, 211, 182, 246,  81,  52, 116, 439, 438, 437, 440, 441, 442, 435, 443, 444
 22, 182, 144, 210,  52,  14,  80, 447, 446, 445, 448, 449, 450, 443, 451, 452
 23, 183, 143, 209,  53,  13,  79, 455, 454, 453, 456, 457, 458, 460, 459, 461
 24, 184, 142, 208,  54,  12,  78, 464, 463, 462, 465, 466, 467, 469, 468, 470
 25, 185, 141, 207,  55,  11,  77, 473, 472, 471, 474, 475, 476, 478, 477, 479
 26, 186, 140, 206,  56,  10,  76, 482, 481, 480, 483, 484, 485, 487, 486, 488
 27, 187, 139, 205,  57,   9,  75, 491, 490, 489, 492, 493, 494, 496, 495, 497
 28, 188, 138, 204,  58,   8,  74, 500, 499, 498, 501, 502, 503, 505, 504, 506
 29, 189, 137, 203,  59,   7,  73, 509, 508, 507, 510, 511, 512, 514, 513, 515
 30, 190, 136, 202,  60,   6,  72, 518, 517, 516, 519, 520, 521, 523, 522, 524
 31, 191, 135, 201,  61,   5,  71, 527, 526, 525, 528, 529, 530, 532, 531, 533
 32, 192, 134, 200,  62,   4,  70, 536, 535, 534, 537, 538, 539, 541, 540, 542
 33, 193, 133, 199,  63,   3,  69, 545, 544, 543, 546, 547, 548, 550, 549, 551
 34, 194, 132, 198,  64,   2,  68, 554, 553, 552, 555, 556, 557, 559, 558, 560
 35, 195, 131, 197,  65,   1,  67, 563, 562, 561, 564, 565, 566, 568, 567, 569
 36, 197, 164, 260,  67,  34, 130, 572, 571, 570, 573, 574, 575, 569, 576, 577
 37, 198, 195, 259,  68,  65, 129, 580, 579, 578, 581, 582, 583, 560, 568, 584
 38, 199, 194, 258,  69,  64, 128, 587, 586, 585, 588, 589, 590, 551, 559, 591
 39, 200, 193, 257,  70,  63, 127, 594, 593, 592, 595, 596, 597, 542, 550, 598
 40, 201, 192, 256,  71,  62, 126, 601, 600, 599, 602, 603, 604, 533, 541, 605
 41, 202, 191, 255,  72,  61, 125, 608, 607, 606, 609, 610, 611, 524, 532, 612
 42, 203, 190, 254,  73,  60, 124, 615, 614, 613, 616, 617, 618, 515, 523, 619
 43, 204, 189, 253,  74,  59, 123, 622, 621, 620, 623, 624, 625, 506, 514, 626
 44, 205, 188, 252,  75,  58, 122, 629, 628, 627, 630, 631, 632, 497, 505, 633
 45, 206, 187, 251,  76,  57, 121, 636, 635, 634, 637, 638, 639, 488, 496, 640
 46, 207, 186, 250,  77,  56, 120, 643, 642, 641, 644, 645, 646, 479, 487, 647
 47, 208, 185, 249,  78,  55, 119, 650, 649, 648, 651, 652, 653, 470, 478, 654
 48, 209, 184, 248,  79,  54, 118, 657, 656, 655, 658, 659, 660, 461, 469, 661
 49, 210, 183, 247,  80,  53, 117, 664, 663, 662, 665, 666, 667, 452, 460, 668
 50, 213, 179, 147,  83,  49,  17, 671, 670, 669, 672, 673, 674, 412, 402, 675
 51, 214, 178, 148,  84,  48,  18, 678, 677, 676, 679, 680, 681, 403, 393, 682
 52, 215, 177, 149,  85,  47,  19, 685, 684, 683, 686, 687, 688, 394, 384, 689
 53, 216, 176, 150,  86,  46,  20, 692, 691, 690, 693, 694, 695, 385, 375, 696
 54, 217, 175, 151,  87,  45,  21, 699, 698, 697, 700, 701, 702, 376, 366, 703
 55, 218, 174, 152,  88,  44,  22, 706, 705, 704, 707, 708, 709, 367, 357, 710
 56, 219, 173, 153,  89,  43,  23, 713, 712, 711, 714, 715, 716, 358, 348, 717
 57, 220, 172, 154,  90,  42,  24, 720, 719, 718, 721, 722, 723, 349, 339, 724
 58, 221, 171, 155,  91,  41,  25, 727, 726, 725, 728, 729, 730, 340, 330, 731
 59, 222, 170, 156,  92,  40,  26, 734, 733, 732, 735, 736, 737, 331, 321, 738
 60, 223, 169, 157,  93,  39,  27, 741, 740, 739, 742, 743, 744, 322, 312, 745
 61, 224, 168, 158,  94,  38,  28, 748, 747, 746, 749, 750, 751, 313, 303, 752
 62, 225, 167, 159,  95,  37,  29, 755, 754, 753, 756, 757, 758, 304, 294, 759
 63, 226, 166, 160,  96,  36,  30, 762, 761, 760, 763, 764, 765, 295, 285, 766
 64, 227, 165, 161,  97,  35,  31, 769, 768, 767, 770, 771, 772, 286, 277, 773
 65, 197, 162, 164,  67,  32,  34, 775, 774, 572, 776, 777, 573, 569, 778, 576
 66, 198, 131, 195,  68,   1,  65, 779, 563, 580, 780, 564, 581, 560, 567, 568
 67, 199, 132, 194,  69,   2,  64, 781, 554, 587, 782, 555, 588, 551, 558, 559
 68, 200, 133, 193,  70,   3,  63, 783, 545, 594, 784, 546, 595, 542, 549, 550
 69, 201, 134, 192,  71,   4,  62, 785, 536, 601, 786, 537, 602, 533, 540, 541
 70, 202, 135, 191,  72,   5,  61, 787, 527, 608, 788, 528, 609, 524, 531, 532
 71, 203, 136, 190,  73,   6,  60, 789, 518, 615, 790, 519, 616, 515, 522, 523
 72, 204, 137, 189,  74,   7,  59, 791, 509, 622, 792, 510, 623, 506, 513, 514
 73, 205, 138, 188,  75,   8,  58, 793, 500, 629, 794, 501, 630, 497, 504, 505
 74, 206, 139, 187,  76,   9,  57, 795, 491, 636, 796, 492, 637, 488, 495, 496
 75, 207, 140, 186,  77,  10,  56, 797, 482, 643, 798, 483, 644, 479, 486, 487
 76, 208, 141, 185,  78,  11,  55, 799, 473, 650, 800, 474, 651, 470, 477, 478
 77, 209, 142, 184,  79,  12,  54, 801, 464, 657, 802, 465, 658, 461, 468, 469
 78, 210, 143, 183,  80,  13,  53, 803, 455, 664, 804, 456, 665, 452, 459, 460
 79, 211, 144, 182,  81,  14,  52, 805, 447, 439, 806, 448, 440, 435, 451, 443
 80, 212, 145, 181,  82,  15,  51, 807, 429, 423, 808, 434, 424, 419, 436, 427
 81, 213, 146, 180,  83,  16,  50, 809, 414, 404, 810, 417, 409, 412, 420, 411
 82, 214, 147, 179,  84,  17,  49, 811, 670, 395, 812, 673, 400, 403, 675, 402
 83, 215, 148, 178,  85,  18,  48, 813, 677, 386, 814, 680, 391, 394, 682, 393
 84, 216, 149, 177,  86,  19,  47, 815, 684, 377, 816, 687, 382, 385, 689, 384
 85, 217, 150, 176,  87,  20,  46, 817, 691, 368, 818, 694, 373, 376, 696, 375
 86, 218, 151, 175,  88,  21,  45, 819, 698, 359, 820, 701, 364, 367, 703, 366
 87, 219, 152, 174,  89,  22,  44, 821, 705, 350, 822, 708, 355, 358, 710, 357
 88, 220, 153, 173,  90,  23,  43, 823, 712, 341, 824, 715, 346, 349, 717, 348
 89, 221, 154, 172,  91,  24,  42, 825, 719, 332, 826, 722, 337, 340, 724, 339
 90, 222, 155, 171,  92,  25,  41, 827, 726, 323, 828, 729, 328, 331, 731, 330
 91, 223, 156, 170,  93,  26,  40, 829, 733, 314, 830, 736, 319, 322, 738, 321
 92, 224, 157, 169,  94,  27,  39, 831, 740, 305, 832, 743, 310, 313, 745, 312
 93, 225, 158, 168,  95,  28,  38, 833, 747, 296, 834, 750, 301, 304, 752, 303
 94, 226, 159, 167,  96,  29,  37, 835, 754, 287, 836, 757, 292, 295, 759, 294
 95, 227, 160, 166,  97,  30,  36, 837, 761, 278, 838, 764, 283, 286, 766, 285
 96, 228, 161, 165,  98,  31,  35, 839, 768, 270, 840, 771, 275, 268, 773, 277
 97, 229, 196, 228,  99,  66,  98, 841, 263, 271, 842, 264, 274, 276, 267, 268
 98, 230, 165, 227, 100,  35,  97, 843, 769, 279, 844, 770, 282, 284, 277, 286
 99, 231, 166, 226, 101,  36,  96, 845, 762, 288, 846, 763, 291, 293, 285, 295
100, 232, 167, 225, 102,  37,  95, 847, 755, 297, 848, 756, 300, 302, 294, 304
101, 233, 168, 224, 103,  38,  94, 849, 748, 306, 850, 749, 309, 311, 303, 313
102, 234, 169, 223, 104,  39,  93, 851, 741, 315, 852, 742, 318, 320, 312, 322
103, 235, 170, 222, 105,  40,  92, 853, 734, 324, 854, 735, 327, 329, 321, 331
104, 236, 171, 221, 106,  41,  91, 855, 727, 333, 856, 728, 336, 338, 330, 340
105, 237, 172, 220, 107,  42,  90, 857, 720, 342, 858, 721, 345, 347, 339, 349
106, 238, 173, 219, 108,  43,  89, 859, 713, 351, 860, 714, 354, 356, 348, 358
107, 239, 174, 218, 109,  44,  88, 861, 706, 360, 862, 707, 363, 365, 357, 367
108, 240, 175, 217, 110,  45,  87, 863, 699, 369, 864, 700, 372, 374, 366, 376
109, 241, 176, 216, 111,  46,  86, 865, 692, 378, 866, 693, 381, 383, 375, 385
110, 242, 177, 215, 112,  47,  85, 867, 685, 387, 868, 686, 390, 392, 384, 394
111, 243, 178, 214, 113,  48,  84, 869, 678, 396, 870, 679, 399, 401, 393, 403
112, 244, 179, 213, 114,  49,  83, 871, 671, 405, 872, 672, 408, 410, 402, 412
113, 245, 180, 212, 115,  50,  82, 873, 415, 421, 874, 416, 426, 428, 411, 419
114, 246, 181, 211, 116,  51,  81, 875, 430, 437, 876, 433, 442, 444, 427, 435
115, 247, 182, 210, 117,  52,  80, 877, 445, 662, 878, 450, 667, 668, 443, 452
116, 248, 183, 209, 118,  53,  79, 879, 453, 655, 880, 458, 660, 661, 460, 461
117, 249, 184, 208, 119,  54,  78, 881, 462, 648, 882, 467, 653, 654, 469, 470
118, 250, 185, 207, 120,  55,  77, 883, 471, 641, 884, 476, 646, 647, 478, 479
119, 251, 186, 206, 121,  56,  76, 885, 480, 634, 886, 485, 639, 640, 487, 488
120, 252, 187, 205, 122,  57,  75, 887, 489, 627, 888, 494, 632, 633, 496, 497
121, 253, 188, 204, 123,  58,  74, 889, 498, 620, 890, 503, 625, 626, 505, 506
122, 254, 189, 203, 124,  59,  73, 891, 507, 613, 892, 512, 618, 619, 514, 515
123, 255, 190, 202, 125,  60,  72, 893, 516, 606, 894, 521, 611, 612, 523, 524
124, 256, 191, 201, 126,  61,  71, 895, 525, 599, 896, 530, 604, 605, 532, 533
125, 257, 192, 200, 127,  62,  70, 897, 534, 592, 898, 539, 597, 598, 541, 542
126, 258, 193, 199, 128,  63,  69, 899, 543, 585, 900, 548, 590, 591, 550, 551
127, 259, 194, 198, 129,  64,  68, 901, 552, 578, 902, 557, 583, 584, 559, 560
128, 260, 195, 197, 130,  65,  67, 903, 561, 570, 904, 566, 575, 577, 568, 569
*Nset, nset=Set-1, generate
   1,  904,    1
*Elset, elset=Set-1, generate
   1,  128,    1
** Section: Section-1
*Solid Section, elset=Set-1, material=Material-1
,
*End Part
**  
**
** ASSEMBLY
**
*Assembly, name=Assembly
**  
*Instance, name=Part-1-1, part=Part-1
*End Instance
**  
*Nset, nset=Set-1, instance=Part-1-1
  32,  33,  34,  66, 162, 163, 164, 196, 262, 265, 267, 269, 576, 774, 777, 778
*Elset, elset=Set-1, instance=Part-1-1
  1, 65
*End Assembly
** 
** MATERIALS
** 
*Material, name=Material-1
*Density
 0.00232,
*Elastic
160000., 0.22
** 
** BOUNDARY CONDITIONS
** 
** Name: BC-1 Type: Displacement/Rotation
*Boundary
Set-1, 1, 1
Set-1, 2, 2
Set-1, 3, 3
Set-1, 4, 4
Set-1, 5, 5
Set-1, 6, 6
